50
1000
396
393
392
389
389
385
383
383
381
380
380
380
379
378
376
369
367
363
361
361
358
358
357
357
355
353
346
343
341
337
336
335
334
333
329
323
321
312
311
302
295
295
293
292
291
288
280
279
274
271
